% mem=4GB
% nprocshared=4
% chk=A_B_60.chk
# B3LYP/6-31+G* int=ultrafine nosymm pop=nboread

A_B_60

0 1
C     0.672749     0.000000     0.000000
C    -0.672749     0.000000     0.000000
H     1.242623     0.934806     0.000000
H     1.242623    -0.934806     0.000000
H    -1.242623     0.934806     0.000000
H    -1.242623    -0.934806     0.000000
C     0.672749     0.000000     5.000000
C    -0.672749     0.000000     5.000000
H     1.242623     0.467403     4.190434
H     1.242623    -0.467403     5.809566
H    -1.242623     0.467403     4.190434
H    -1.242623    -0.467403     5.809566

$NBO SAO=w43 FAO=W44 $END

