% mem=4GB
% nprocshared=4
% chk=A.chk
# B3LYP/6-31+G* int=ultrafine nosymm punch(mo)

A

0 1
C  0.672749  0.000000  0.000000
C -0.672749  0.000000  0.000000
H  1.242623  0.934806  0.000000
H  1.242623 -0.934806  0.000000
H -1.242623  0.934806  0.000000
H -1.242623 -0.934806  0.000000

