% mem=4GB
% nprocshared=4
% chk=B_15.chk
# B3LYP/6-31+G* int=ultrafine nosymm punch(mo)

B_15

0 1
C     0.672749     0.000000     5.000000
C    -0.672749     0.000000     5.000000
H     1.242623     0.902953     4.758054
H     1.242623    -0.902953     5.241946
H    -1.242623     0.902953     4.758054
H    -1.242623    -0.902953     5.241946


