% mem=4GB
% nprocshared=4
% chk=B_30.chk
# B3LYP/6-31+G* int=ultrafine nosymm punch(mo)

B_30

0 1
C     0.672749     0.000000     5.000000
C    -0.672749     0.000000     5.000000
H     1.242623     0.809566     4.532597
H     1.242623    -0.809566     5.467403
H    -1.242623     0.809566     4.532597
H    -1.242623    -0.809566     5.467403

