% mem=4GB
% nprocshared=4
% chk=B_75.chk
# B3LYP/6-31+G* int=ultrafine nosymm punch(mo)

B_75

0 1
C     0.672749     0.000000     5.000000
C    -0.672749     0.000000     5.000000
H     1.242623     0.241946     4.097047
H     1.242623    -0.241946     5.902953
H    -1.242623     0.241946     4.097047
H    -1.242623    -0.241946     5.902953

